Maximize
F - f1 - f2

Subject to
F - 6y26 - 6y30 - 6y37 - 8y53 - 2y128 - 6y148 - 4y159 - 2y120 - 8y48 - 6y57 - 6y129 - 6y172 - 4y124 - 6y100 - 6y175 - 8y8 - 8y158 - 8y44 - 6y125 = 0
f1 - 0.007349s26 - 0.007349s30 - 0.007349s37 - 0.007349s53 - 0.007349s128 - 0.007349s148 - 0.007349s159 - 0.007349s120 - 0.007349s48 - 0.007349s57 - 0.007349s129 - 0.007349s172 - 0.007349s124 - 0.007349s100 - 0.007349s175 - 0.007349s8 - 0.007349s158 - 0.007349s44 - 0.007349s125  = 0
f2 - 3.02y26 - 2.43y30 - 3.05y37 - 3.47y53 - 3.12y128 - 2.34y148 - 3.41y159 - 2.49y120 - 2.55y48 - 1.80y57 - 1.71y129 - 1.85y172 - 1.78y124 - 1.72y100 - 1.83y175 - 1.99y8 - 1.38y158 - 1.75y44 - 1.11y125 = 0

x122x128x1 + x122x148x1 + x122x172x1 + x122x44x1 
<= 1
x23x53x1 + x23x128x1 + x23x148x1 + x23x159x1 + x23x172x1 + x23x44x1 
<= 1
x146x128x1 + x146x148x1 + x146x159x1 + x146x172x1 + x146x44x1 
<= 1
x86x53x1 + x86x128x1 + x86x148x1 + x86x159x1 + x86x172x1 + x86x44x1 
<= 1
x132x53x1 + x132x128x1 + x132x148x1 + x132x159x1 + x132x172x1 + x132x44x1 
<= 1
x182x128x1 + x182x148x1 + x182x159x1 + x182x172x1 + x182x44x1 
<= 1
x2x30x2 + x2x37x2 + x2x120x2 + x2x48x2 + x2x57x2 + x2x129x2 + x2x124x2 + x2x100x2 + x2x175x2 + x2x8x2 + x2x158x2 + x2x44x2 
<= 1
x4x30x2 + x4x37x2 + x4x120x2 + x4x48x2 + x4x57x2 + x4x129x2 + x4x124x2 + x4x100x2 + x4x175x2 + x4x8x2 + x4x158x2 + x4x44x2 
<= 1
x23x30x2 + x23x37x2 + x23x120x2 + x23x48x2 + x23x57x2 + x23x129x2 + x23x124x2 + x23x100x2 + x23x175x2 + x23x8x2 + x23x158x2 + x23x44x2 
<= 1
x146x30x2 + x146x37x2 + x146x120x2 + x146x48x2 + x146x57x2 + x146x129x2 + x146x124x2 + x146x100x2 + x146x175x2 + x146x8x2 + x146x158x2 + x146x44x2 
<= 1
x86x30x2 + x86x37x2 + x86x120x2 + x86x48x2 + x86x57x2 + x86x129x2 + x86x124x2 + x86x100x2 + x86x175x2 + x86x8x2 + x86x158x2 + x86x44x2 
<= 1
x163x30x2 + x163x37x2 + x163x120x2 + x163x48x2 + x163x57x2 + x163x129x2 + x163x124x2 + x163x100x2 + x163x175x2 + x163x8x2 + x163x158x2 + x163x44x2 
<= 1

x122x30x3 + x122x37x3 + x122x148x3 + x122x57x3 + x122x172x3 + x122x175x3 + x122x158x3 + x122x125x3 
<= 1
x2x26x3 + x2x30x3 + x2x37x3 + x2x148x3 + x2x159x3 + x2x57x3 + x2x172x3 + x2x175x3 + x2x158x3 + x2x125x3 
<= 1
x4x26x3 + x4x30x3 + x4x37x3 + x4x148x3 + x4x159x3 + x4x57x3 + x4x172x3 + x4x175x3 + x4x158x3 + x4x125x3 
<= 1
x132x26x3 + x132x30x3 + x132x37x3 + x132x148x3 + x132x159x3 + x132x57x3 + x132x172x3 + x132x175x3 + x132x158x3 + x132x125x3 
<= 1
x182x26x3 + x182x30x3 + x182x37x3 + x182x148x3 + x182x159x3 + x182x57x3 + x182x172x3 + x182x175x3 + x182x158x3 + x182x125x3 
<= 1
x163x30x3 + x163x37x3 + x163x148x3 + x163x159x3 + x163x57x3 + x163x172x3 + x163x175x3 + x163x158x3 + x163x125x3 
<= 1



x2x26x3 + x4x26x3 + x132x26x3 + x182x26x3 
- x26x0x3
- x26x57x3 - x26x172x3 - x26x175x3 - x26x158x3 - x26x125x3 
= 0


x2x30x2 + x4x30x2 + x23x30x2 + x146x30x2 + x86x30x2 + x163x30x2 
- x30x0x2
- x30x48x2 - x30x57x2 - x30x129x2 - x30x124x2 - x30x100x2 - x30x175x2 - x30x8x2 - x30x158x2 - x30x44x2 
= 0
x122x30x3 + x2x30x3 + x4x30x3 + x132x30x3 + x182x30x3 + x163x30x3 
- x30x0x3
- x30x57x3 - x30x172x3 - x30x175x3 - x30x158x3 - x30x125x3 
= 0


x2x37x2 + x4x37x2 + x23x37x2 + x146x37x2 + x86x37x2 + x163x37x2 
- x37x0x2
- x37x48x2 - x37x57x2 - x37x129x2 - x37x124x2 - x37x100x2 - x37x175x2 - x37x8x2 - x37x158x2 - x37x44x2 
= 0
x122x37x3 + x2x37x3 + x4x37x3 + x132x37x3 + x182x37x3 + x163x37x3 
- x37x0x3
- x37x57x3 - x37x172x3 - x37x175x3 - x37x158x3 - x37x125x3 
= 0

x23x53x1 + x86x53x1 + x132x53x1 
- x53x0x1
- x53x172x1 - x53x44x1 
= 0



x122x128x1 + x23x128x1 + x146x128x1 + x86x128x1 + x132x128x1 + x182x128x1 
- x128x0x1
- x128x172x1 - x128x44x1 
= 0



x122x148x1 + x23x148x1 + x146x148x1 + x86x148x1 + x132x148x1 + x182x148x1 
- x148x0x1
- x148x172x1 - x148x44x1 
= 0

x122x148x3 + x2x148x3 + x4x148x3 + x132x148x3 + x182x148x3 + x163x148x3 
- x148x0x3
- x148x57x3 - x148x172x3 - x148x175x3 - x148x158x3 - x148x125x3 
= 0

x23x159x1 + x146x159x1 + x86x159x1 + x132x159x1 + x182x159x1 
- x159x0x1
- x159x172x1 - x159x44x1 
= 0

x2x159x3 + x4x159x3 + x132x159x3 + x182x159x3 + x163x159x3 
- x159x0x3
- x159x57x3 - x159x172x3 - x159x175x3 - x159x158x3 - x159x125x3 
= 0


x2x120x2 + x4x120x2 + x23x120x2 + x146x120x2 + x86x120x2 + x163x120x2 
- x120x0x2
- x120x48x2 - x120x57x2 - x120x129x2 - x120x124x2 - x120x100x2 - x120x175x2 - x120x8x2 - x120x158x2 - x120x44x2 
= 0



x2x48x2 + x4x48x2 + x23x48x2 + x146x48x2 + x86x48x2 + x163x48x2 + x30x48x2 + x37x48x2 + x120x48x2 
- x48x0x2
- x48x175x2 - x48x8x2 - x48x158x2 - x48x44x2 
= 0



x2x57x2 + x4x57x2 + x23x57x2 + x146x57x2 + x86x57x2 + x163x57x2 + x30x57x2 + x37x57x2 + x120x57x2 
- x57x0x2
- x57x124x2 - x57x100x2 - x57x175x2 - x57x8x2 - x57x158x2 - x57x44x2 
= 0
x122x57x3 + x2x57x3 + x4x57x3 + x132x57x3 + x182x57x3 + x163x57x3 + x26x57x3 + x30x57x3 + x37x57x3 + x148x57x3 + x159x57x3 
- x57x0x3
- x57x172x3 - x57x175x3 - x57x158x3 - x57x125x3 
= 0


x2x129x2 + x4x129x2 + x23x129x2 + x146x129x2 + x86x129x2 + x163x129x2 + x30x129x2 + x37x129x2 + x120x129x2 
- x129x0x2
- x129x124x2 - x129x100x2 - x129x175x2 - x129x8x2 - x129x158x2 - x129x44x2 
= 0


x122x172x1 + x23x172x1 + x146x172x1 + x86x172x1 + x132x172x1 + x182x172x1 + x53x172x1 + x128x172x1 + x148x172x1 + x159x172x1 
- x172x0x1
- x172x44x1 
= 0

x122x172x3 + x2x172x3 + x4x172x3 + x132x172x3 + x182x172x3 + x163x172x3 + x26x172x3 + x30x172x3 + x37x172x3 + x148x172x3 + x159x172x3 + x57x172x3 
- x172x0x3
- x172x175x3 - x172x158x3 - x172x125x3 
= 0


x2x124x2 + x4x124x2 + x23x124x2 + x146x124x2 + x86x124x2 + x163x124x2 + x30x124x2 + x37x124x2 + x120x124x2 + x57x124x2 + x129x124x2 
- x124x0x2
- x124x100x2 - x124x175x2 - x124x8x2 - x124x158x2 - x124x44x2 
= 0



x2x100x2 + x4x100x2 + x23x100x2 + x146x100x2 + x86x100x2 + x163x100x2 + x30x100x2 + x37x100x2 + x120x100x2 + x57x100x2 + x129x100x2 + x124x100x2 
- x100x0x2
- x100x175x2 - x100x8x2 - x100x158x2 - x100x44x2 
= 0



x2x175x2 + x4x175x2 + x23x175x2 + x146x175x2 + x86x175x2 + x163x175x2 + x30x175x2 + x37x175x2 + x120x175x2 + x48x175x2 + x57x175x2 + x129x175x2 + x124x175x2 + x100x175x2 
- x175x0x2
- x175x44x2 
= 0
x122x175x3 + x2x175x3 + x4x175x3 + x132x175x3 + x182x175x3 + x163x175x3 + x26x175x3 + x30x175x3 + x37x175x3 + x148x175x3 + x159x175x3 + x57x175x3 + x172x175x3 
- x175x0x3
- x175x125x3 
= 0


x2x8x2 + x4x8x2 + x23x8x2 + x146x8x2 + x86x8x2 + x163x8x2 + x30x8x2 + x37x8x2 + x120x8x2 + x48x8x2 + x57x8x2 + x129x8x2 + x124x8x2 + x100x8x2 
- x8x0x2
- x8x44x2 
= 0



x2x158x2 + x4x158x2 + x23x158x2 + x146x158x2 + x86x158x2 + x163x158x2 + x30x158x2 + x37x158x2 + x120x158x2 + x48x158x2 + x57x158x2 + x129x158x2 + x124x158x2 + x100x158x2 
- x158x0x2

= 0
x122x158x3 + x2x158x3 + x4x158x3 + x132x158x3 + x182x158x3 + x163x158x3 + x26x158x3 + x30x158x3 + x37x158x3 + x148x158x3 + x159x158x3 + x57x158x3 + x172x158x3 
- x158x0x3
- x158x125x3 
= 0

x122x44x1 + x23x44x1 + x146x44x1 + x86x44x1 + x132x44x1 + x182x44x1 + x53x44x1 + x128x44x1 + x148x44x1 + x159x44x1 + x172x44x1 
- x44x0x1

= 0
x2x44x2 + x4x44x2 + x23x44x2 + x146x44x2 + x86x44x2 + x163x44x2 + x30x44x2 + x37x44x2 + x120x44x2 + x48x44x2 + x57x44x2 + x129x44x2 + x124x44x2 + x100x44x2 + x175x44x2 + x8x44x2 
- x44x0x2

= 0




x122x125x3 + x2x125x3 + x4x125x3 + x132x125x3 + x182x125x3 + x163x125x3 + x26x125x3 + x30x125x3 + x37x125x3 + x148x125x3 + x159x125x3 + x57x125x3 + x172x125x3 + x175x125x3 + x158x125x3 
- x125x0x3

= 0

2y26 - x2x26x3 - x4x26x3 - x132x26x3 - x182x26x3 = 0
1y30 - x2x30x2 - x4x30x2 - x23x30x2 - x146x30x2 - x86x30x2 - x163x30x2 = 0
1y30 - x122x30x3 - x2x30x3 - x4x30x3 - x132x30x3 - x182x30x3 - x163x30x3 = 0
1y37 - x2x37x2 - x4x37x2 - x23x37x2 - x146x37x2 - x86x37x2 - x163x37x2 = 0
1y37 - x122x37x3 - x2x37x3 - x4x37x3 - x132x37x3 - x182x37x3 - x163x37x3 = 0
2y53 - x23x53x1 - x86x53x1 - x132x53x1 = 0
2y128 - x122x128x1 - x23x128x1 - x146x128x1 - x86x128x1 - x132x128x1 - x182x128x1 = 0
1y148 - x122x148x1 - x23x148x1 - x146x148x1 - x86x148x1 - x132x148x1 - x182x148x1 = 0
1y148 - x122x148x3 - x2x148x3 - x4x148x3 - x132x148x3 - x182x148x3 - x163x148x3 = 0
1y159 - x23x159x1 - x146x159x1 - x86x159x1 - x132x159x1 - x182x159x1 = 0
1y159 - x2x159x3 - x4x159x3 - x132x159x3 - x182x159x3 - x163x159x3 = 0
2y120 - x2x120x2 - x4x120x2 - x23x120x2 - x146x120x2 - x86x120x2 - x163x120x2 = 0
2y48 - x2x48x2 - x4x48x2 - x23x48x2 - x146x48x2 - x86x48x2 - x163x48x2 - x30x48x2 - x37x48x2 - x120x48x2 = 0
1y57 - x2x57x2 - x4x57x2 - x23x57x2 - x146x57x2 - x86x57x2 - x163x57x2 - x30x57x2 - x37x57x2 - x120x57x2 = 0
1y57 - x122x57x3 - x2x57x3 - x4x57x3 - x132x57x3 - x182x57x3 - x163x57x3 - x26x57x3 - x30x57x3 - x37x57x3 - x148x57x3 - x159x57x3 = 0
2y129 - x2x129x2 - x4x129x2 - x23x129x2 - x146x129x2 - x86x129x2 - x163x129x2 - x30x129x2 - x37x129x2 - x120x129x2 = 0
1y172 - x122x172x1 - x23x172x1 - x146x172x1 - x86x172x1 - x132x172x1 - x182x172x1 - x53x172x1 - x128x172x1 - x148x172x1 - x159x172x1 = 0
1y172 - x122x172x3 - x2x172x3 - x4x172x3 - x132x172x3 - x182x172x3 - x163x172x3 - x26x172x3 - x30x172x3 - x37x172x3 - x148x172x3 - x159x172x3 - x57x172x3 = 0
2y124 - x2x124x2 - x4x124x2 - x23x124x2 - x146x124x2 - x86x124x2 - x163x124x2 - x30x124x2 - x37x124x2 - x120x124x2 - x57x124x2 - x129x124x2 = 0
2y100 - x2x100x2 - x4x100x2 - x23x100x2 - x146x100x2 - x86x100x2 - x163x100x2 - x30x100x2 - x37x100x2 - x120x100x2 - x57x100x2 - x129x100x2 - x124x100x2 = 0
1y175 - x2x175x2 - x4x175x2 - x23x175x2 - x146x175x2 - x86x175x2 - x163x175x2 - x30x175x2 - x37x175x2 - x120x175x2 - x48x175x2 - x57x175x2 - x129x175x2 - x124x175x2 - x100x175x2 = 0
1y175 - x122x175x3 - x2x175x3 - x4x175x3 - x132x175x3 - x182x175x3 - x163x175x3 - x26x175x3 - x30x175x3 - x37x175x3 - x148x175x3 - x159x175x3 - x57x175x3 - x172x175x3 = 0
2y8 - x2x8x2 - x4x8x2 - x23x8x2 - x146x8x2 - x86x8x2 - x163x8x2 - x30x8x2 - x37x8x2 - x120x8x2 - x48x8x2 - x57x8x2 - x129x8x2 - x124x8x2 - x100x8x2 = 0
1y158 - x2x158x2 - x4x158x2 - x23x158x2 - x146x158x2 - x86x158x2 - x163x158x2 - x30x158x2 - x37x158x2 - x120x158x2 - x48x158x2 - x57x158x2 - x129x158x2 - x124x158x2 - x100x158x2 = 0
1y158 - x122x158x3 - x2x158x3 - x4x158x3 - x132x158x3 - x182x158x3 - x163x158x3 - x26x158x3 - x30x158x3 - x37x158x3 - x148x158x3 - x159x158x3 - x57x158x3 - x172x158x3 = 0
1y44 - x122x44x1 - x23x44x1 - x146x44x1 - x86x44x1 - x132x44x1 - x182x44x1 - x53x44x1 - x128x44x1 - x148x44x1 - x159x44x1 - x172x44x1 = 0
1y44 - x2x44x2 - x4x44x2 - x23x44x2 - x146x44x2 - x86x44x2 - x163x44x2 - x30x44x2 - x37x44x2 - x120x44x2 - x48x44x2 - x57x44x2 - x129x44x2 - x124x44x2 - x100x44x2 - x175x44x2 - x8x44x2 = 0
2y125 - x122x125x3 - x2x125x3 - x4x125x3 - x132x125x3 - x182x125x3 - x163x125x3 - x26x125x3 - x30x125x3 - x37x125x3 - x148x125x3 - x159x125x3 - x57x125x3 - x172x125x3 - x175x125x3 - x158x125x3 = 0

s122 - s30 + 6.536738z122z30z3 <= 5.28
s122 - s37 + 6.742810z122z37z3 <= 5.28
s122 - s128 + 6.743389z122z128z1 <= 5.28
s122 - s148 + 6.590441z122z148z1 <= 5.28
s122 - s148 + 6.590441z122z148z3 <= 5.28
s122 - s57 + 6.715180z122z57z3 <= 5.28
s122 - s172 + 6.742230z122z172z1 <= 5.28
s122 - s172 + 6.742230z122z172z3 <= 5.28
s122 - s175 + 6.759878z122z175z3 <= 5.28
s122 - s158 + 6.682005z122z158z3 <= 5.28
s122 - s44 + 6.774552z122z44z1 <= 5.28
s122 - s125 + 6.789679z122z125z3 <= 5.28
s2 - s26 + 6.420042z2z26z3 <= 4.83
s2 - s30 + 6.335784z2z30z2 <= 4.83
s2 - s30 + 6.335784z2z30z3 <= 4.83
s2 - s37 + 6.539811z2z37z2 <= 4.83
s2 - s37 + 6.539811z2z37z3 <= 4.83
s2 - s148 + 6.399200z2z148z3 <= 4.83
s2 - s159 + 6.538809z2z159z3 <= 4.83
s2 - s120 + 6.533936z2z120z2 <= 4.83
s2 - s48 + 6.590797z2z48z2 <= 4.83
s2 - s57 + 6.536203z2z57z2 <= 4.83
s2 - s57 + 6.536203z2z57z3 <= 4.83
s2 - s129 + 6.512404z2z129z2 <= 4.83
s2 - s172 + 6.563085z2z172z3 <= 4.83
s2 - s124 + 6.554092z2z124z2 <= 4.83
s2 - s100 + 6.551203z2z100z2 <= 4.83
s2 - s175 + 6.580925z2z175z2 <= 4.83
s2 - s175 + 6.580925z2z175z3 <= 4.83
s2 - s8 + 6.599275z2z8z2 <= 4.83
s2 - s158 + 6.503065z2z158z2 <= 4.83
s2 - s158 + 6.503065z2z158z3 <= 4.83
s2 - s44 + 6.595919z2z44z2 <= 4.83
s2 - s125 + 6.608459z2z125z3 <= 4.83
s4 - s26 + 6.293595z4z26z3 <= 4.82
s4 - s30 + 6.218826z4z30z2 <= 4.82
s4 - s30 + 6.218826z4z30z3 <= 4.82
s4 - s37 + 6.416631z4z37z2 <= 4.82
s4 - s37 + 6.416631z4z37z3 <= 4.82
s4 - s148 + 6.286578z4z148z3 <= 4.82
s4 - s159 + 6.409947z4z159z3 <= 4.82
s4 - s120 + 6.421131z4z120z2 <= 4.82
s4 - s48 + 6.477981z4z48z2 <= 4.82
s4 - s57 + 6.439092z4z57z2 <= 4.82
s4 - s57 + 6.439092z4z57z3 <= 4.82
s4 - s129 + 6.417414z4z129z2 <= 4.82
s4 - s172 + 6.464853z4z172z3 <= 4.82
s4 - s124 + 6.457664z4z124z2 <= 4.82
s4 - s100 + 6.456125z4z100z2 <= 4.82
s4 - s175 + 6.483374z4z175z2 <= 4.82
s4 - s175 + 6.483374z4z175z3 <= 4.82
s4 - s8 + 6.498377z4z8z2 <= 4.82
s4 - s158 + 6.416556z4z158z2 <= 4.82
s4 - s158 + 6.416556z4z158z3 <= 4.82
s4 - s44 + 6.500278z4z44z2 <= 4.82
s4 - s125 + 6.528560z4z125z3 <= 4.82
s23 - s30 + 6.176877z23z30z2 <= 4.87
s23 - s37 + 6.302722z23z37z2 <= 4.87
s23 - s53 + 6.242191z23z53z1 <= 4.87
s23 - s128 + 6.293826z23z128z1 <= 4.87
s23 - s148 + 6.241298z23z148z1 <= 4.87
s23 - s159 + 6.270061z23z159z1 <= 4.87
s23 - s120 + 6.348666z23z120z2 <= 4.87
s23 - s48 + 6.397938z23z48z2 <= 4.87
s23 - s57 + 6.417275z23z57z2 <= 4.87
s23 - s129 + 6.405483z23z129z2 <= 4.87
s23 - s172 + 6.435874z23z172z1 <= 4.87
s23 - s124 + 6.435287z23z124z2 <= 4.87
s23 - s100 + 6.438103z23z100z2 <= 4.87
s23 - s175 + 6.454073z23z175z2 <= 4.87
s23 - s8 + 6.456649z23z8z2 <= 4.87
s23 - s158 + 6.429651z23z158z2 <= 4.87
s23 - s44 + 6.474737z23z44z1 <= 4.87
s23 - s44 + 6.474737z23z44z2 <= 4.87
s146 - s30 + 6.384905z146z30z2 <= 4.86
s146 - s37 + 6.590817z146z37z2 <= 4.86
s146 - s128 + 6.589478z146z128z1 <= 4.86
s146 - s148 + 6.445517z146z148z1 <= 4.86
s146 - s159 + 6.593366z146z159z1 <= 4.86
s146 - s120 + 6.579328z146z120z2 <= 4.86
s146 - s48 + 6.635876z146z48z2 <= 4.86
s146 - s57 + 6.574121z146z57z2 <= 4.86
s146 - s129 + 6.549559z146z129z2 <= 4.86
s146 - s172 + 6.601320z146z172z1 <= 4.86
s146 - s124 + 6.591577z146z124z2 <= 4.86
s146 - s100 + 6.588106z146z100z2 <= 4.86
s146 - s175 + 6.618736z146z175z2 <= 4.86
s146 - s8 + 6.638505z146z8z2 <= 4.86
s146 - s158 + 6.536648z146z158z2 <= 4.86
s146 - s44 + 6.632777z146z44z1 <= 4.86
s146 - s44 + 6.632777z146z44z2 <= 4.86
s86 - s30 + 6.276750z86z30z2 <= 4.92
s86 - s37 + 6.475322z86z37z2 <= 4.92
s86 - s53 + 6.447371z86z53z1 <= 4.92
s86 - s128 + 6.472089z86z128z1 <= 4.92
s86 - s148 + 6.344396z86z148z1 <= 4.92
s86 - s159 + 6.469814z86z159z1 <= 4.92
s86 - s120 + 6.478978z86z120z2 <= 4.92
s86 - s48 + 6.535839z86z48z2 <= 4.92
s86 - s57 + 6.497408z86z57z2 <= 4.92
s86 - s129 + 6.475926z86z129z2 <= 4.92
s86 - s172 + 6.523067z86z172z1 <= 4.92
s86 - s124 + 6.516016z86z124z2 <= 4.92
s86 - s100 + 6.514588z86z100z2 <= 4.92
s86 - s175 + 6.541622z86z175z2 <= 4.92
s86 - s8 + 6.556411z86z8z2 <= 4.92
s86 - s158 + 6.475967z86z158z2 <= 4.92
s86 - s44 + 6.558656z86z44z1 <= 4.92
s86 - s44 + 6.558656z86z44z2 <= 4.92
s132 - s26 + 6.453328z132z26z3 <= 5.05
s132 - s30 + 6.514946z132z30z3 <= 5.05
s132 - s37 + 6.513984z132z37z3 <= 5.05
s132 - s53 + 6.432908z132z53z1 <= 5.05
s132 - s128 + 6.500895z132z128z1 <= 5.05
s132 - s148 + 6.550258z132z148z1 <= 5.05
s132 - s148 + 6.550258z132z148z3 <= 5.05
s132 - s159 + 6.456696z132z159z1 <= 5.05
s132 - s159 + 6.456696z132z159z3 <= 5.05
s132 - s57 + 6.699416z132z57z3 <= 5.05
s132 - s172 + 6.707438z132z172z1 <= 5.05
s132 - s172 + 6.707438z132z172z3 <= 5.05
s132 - s175 + 6.721801z132z175z3 <= 5.05
s132 - s158 + 6.740271z132z158z3 <= 5.05
s132 - s44 + 6.742335z132z44z1 <= 5.05
s132 - s125 + 6.839361z132z125z3 <= 5.05
s182 - s26 + 6.478953z182z26z3 <= 5.11
s182 - s30 + 6.411716z182z30z3 <= 5.11
s182 - s37 + 6.603203z182z37z3 <= 5.11
s182 - s128 + 6.599041z182z128z1 <= 5.11
s182 - s148 + 6.481593z182z148z1 <= 5.11
s182 - s148 + 6.481593z182z148z3 <= 5.11
s182 - s159 + 6.593651z182z159z1 <= 5.11
s182 - s159 + 6.593651z182z159z3 <= 5.11
s182 - s57 + 6.643578z182z57z3 <= 5.11
s182 - s172 + 6.668121z182z172z1 <= 5.11
s182 - s172 + 6.668121z182z172z3 <= 5.11
s182 - s175 + 6.686913z182z175z3 <= 5.11
s182 - s158 + 6.629785z182z158z3 <= 5.11
s182 - s44 + 6.705036z182z44z1 <= 5.11
s182 - s125 + 6.744990z182z125z3 <= 5.11
s163 - s30 + 6.629412z163z30z2 <= 5.14
s163 - s30 + 6.629412z163z30z3 <= 5.14
s163 - s37 + 6.617361z163z37z2 <= 5.14
s163 - s37 + 6.617361z163z37z3 <= 5.14
s163 - s148 + 6.661989z163z148z3 <= 5.14
s163 - s159 + 6.558915z163z159z3 <= 5.14
s163 - s120 + 6.701231z163z120z2 <= 5.14
s163 - s48 + 6.726680z163z48z2 <= 5.14
s163 - s57 + 6.806940z163z57z2 <= 5.14
s163 - s57 + 6.806940z163z57z3 <= 5.14
s163 - s129 + 6.807740z163z129z2 <= 5.14
s163 - s172 + 6.813870z163z172z3 <= 5.14
s163 - s124 + 6.820273z163z124z2 <= 5.14
s163 - s100 + 6.826907z163z100z2 <= 5.14
s163 - s175 + 6.827715z163z175z2 <= 5.14
s163 - s175 + 6.827715z163z175z3 <= 5.14
s163 - s8 + 6.816241z163z8z2 <= 5.14
s163 - s158 + 6.850044z163z158z2 <= 5.14
s163 - s158 + 6.850044z163z158z3 <= 5.14
s163 - s44 + 6.848038z163z44z2 <= 5.14
s163 - s125 + 6.946935z163z125z3 <= 5.14
s26 - s57 + 7.791042z26z57z3 <= 6.54
s26 - s172 + 7.803734z26z172z3 <= 6.54
s26 - s175 + 7.820396z26z175z3 <= 6.54
s26 - s158 + 7.826977z26z158z3 <= 6.54
s26 - s125 + 7.929472z26z125z3 <= 6.54
s30 - s48 + 8.199401z30z48z2 <= 6.94
s30 - s57 + 8.184132z30z57z2 <= 6.94
s30 - s57 + 8.184132z30z57z3 <= 6.94
s30 - s129 + 8.169879z30z129z2 <= 6.94
s30 - s172 + 8.205498z30z172z3 <= 6.94
s30 - s124 + 8.202721z30z124z2 <= 6.94
s30 - s100 + 8.204407z30z100z2 <= 6.94
s30 - s175 + 8.224254z30z175z2 <= 6.94
s30 - s175 + 8.224254z30z175z3 <= 6.94
s30 - s8 + 8.232271z30z8z2 <= 6.94
s30 - s158 + 8.192982z30z158z2 <= 6.94
s30 - s158 + 8.192982z30z158z3 <= 6.94
s30 - s44 + 8.244047z30z44z2 <= 6.94
s30 - s125 + 8.307695z30z125z3 <= 6.94
s37 - s48 + 7.939950z37z48z2 <= 6.83
s37 - s57 + 8.034505z37z57z2 <= 6.83
s37 - s57 + 8.034505z37z57z3 <= 6.83
s37 - s129 + 8.044683z37z129z2 <= 6.83
s37 - s172 + 8.033960z37z172z3 <= 6.83
s37 - s124 + 8.043437z37z124z2 <= 6.83
s37 - s100 + 8.051610z37z100z2 <= 6.83
s37 - s175 + 8.044993z37z175z2 <= 6.83
s37 - s175 + 8.044993z37z175z3 <= 6.83
s37 - s8 + 8.030000z37z8z2 <= 6.83
s37 - s158 + 8.095497z37z158z2 <= 6.83
s37 - s158 + 8.095497z37z158z3 <= 6.83
s37 - s44 + 8.064189z37z44z2 <= 6.83
s37 - s125 + 8.169934z37z125z3 <= 6.83
s53 - s172 + 7.821267z53z172z1 <= 6.54
s53 - s44 + 7.853404z53z44z1 <= 6.54
s128 - s172 + 8.007051z128z172z1 <= 6.79
s128 - s44 + 8.037476z128z44z1 <= 6.79
s148 - s57 + 8.086131z148z57z3 <= 6.91
s148 - s172 + 8.106072z148z172z1 <= 6.91
s148 - s172 + 8.106072z148z172z3 <= 6.91
s148 - s175 + 8.124683z148z175z3 <= 6.91
s148 - s158 + 8.105164z148z158z3 <= 6.91
s148 - s44 + 8.144852z148z44z1 <= 6.91
s148 - s125 + 8.215868z148z125z3 <= 6.91
s159 - s57 + 7.923734z159z57z3 <= 6.66
s159 - s172 + 7.924155z159z172z1 <= 6.66
s159 - s172 + 7.924155z159z172z3 <= 6.66
s159 - s175 + 7.935358z159z175z3 <= 6.66
s159 - s158 + 7.982214z159z158z3 <= 6.66
s159 - s44 + 7.954543z159z44z1 <= 6.66
s159 - s125 + 8.060111z159z125z3 <= 6.66
s120 - s48 + 8.096960z120z48z2 <= 7.04
s120 - s57 + 8.153920z120z57z2 <= 7.04
s120 - s129 + 8.165787z120z129z2 <= 7.04
s120 - s124 + 8.162928z120z124z2 <= 7.04
s120 - s100 + 8.170979z120z100z2 <= 7.04
s120 - s175 + 8.166667z120z175z2 <= 7.04
s120 - s8 + 8.156428z120z8z2 <= 7.04
s120 - s158 + 8.217514z120z158z2 <= 7.04
s120 - s44 + 8.186818z120z44z2 <= 7.04
s48 - s175 + 8.389257z48z175z2 <= 7.27
s48 - s8 + 8.367068z48z8z2 <= 7.27
s48 - s158 + 8.468885z48z158z2 <= 7.27
s48 - s44 + 8.404989z48z44z2 <= 7.27
s57 - s172 + 8.357488z57z172z3 <= 7.33
s57 - s124 + 8.348856z57z124z2 <= 7.33
s57 - s100 + 8.351082z57z100z2 <= 7.33
s57 - s175 + 8.374722z57z175z2 <= 7.33
s57 - s175 + 8.374722z57z175z3 <= 7.33
s57 - s8 + 8.396999z57z8z2 <= 7.33
s57 - s158 + 8.402111z57z158z2 <= 7.33
s57 - s158 + 8.402111z57z158z3 <= 7.33
s57 - s44 + 8.391463z57z44z2 <= 7.33
s57 - s125 + 8.470000z57z125z3 <= 7.33
s129 - s124 + 8.372164z129z124z2 <= 7.33
s129 - s100 + 8.368873z129z100z2 <= 7.33
s129 - s175 + 8.399602z129z175z2 <= 7.33
s129 - s8 + 8.423571z129z8z2 <= 7.33
s129 - s158 + 8.382069z129z158z2 <= 7.33
s129 - s44 + 8.413533z129z44z2 <= 7.33
s172 - s175 + 8.398856z172z175z3 <= 7.38
s172 - s158 + 8.472857z172z158z3 <= 7.38
s172 - s44 + 8.418873z172z44z1 <= 7.38
s172 - s125 + 8.515974z172z125z3 <= 7.38
s124 - s100 + 8.399428z124z100z2 <= 7.39
s124 - s175 + 8.417487z124z175z2 <= 7.39
s124 - s8 + 8.443748z124z8z2 <= 7.39
s124 - s158 + 8.468031z124z158z2 <= 7.39
s124 - s44 + 8.432688z124z44z2 <= 7.39
s100 - s175 + 8.433333z100z175z2 <= 7.40
s100 - s8 + 8.461464z100z8z2 <= 7.40
s100 - s158 + 8.469603z100z158z2 <= 7.40
s100 - s44 + 8.444721z100z44z2 <= 7.40
s175 - s44 + 8.471082z175z44z2 <= 7.45
s175 - s125 + 8.576490z175z125z3 <= 7.45
s8 - s44 + 8.508873z8z44z2 <= 7.47
s158 - s125 + 8.596619z158z125z3 <= 7.48

x122x30x3 - 1z122z30z3 <= 0
x122x37x3 - 1z122z37z3 <= 0
x122x128x1 - 2z122z128z1 <= 0
x122x148x1 - 1z122z148z1 <= 0
x122x148x3 - 1z122z148z3 <= 0
x122x57x3 - 1z122z57z3 <= 0
x122x172x1 - 1z122z172z1 <= 0
x122x172x3 - 1z122z172z3 <= 0
x122x175x3 - 1z122z175z3 <= 0
x122x158x3 - 1z122z158z3 <= 0
x122x44x1 - 1z122z44z1 <= 0
x122x125x3 - 2z122z125z3 <= 0
x2x26x3 - 2z2z26z3 <= 0
x2x30x2 - 1z2z30z2 <= 0
x2x30x3 - 1z2z30z3 <= 0
x2x37x2 - 1z2z37z2 <= 0
x2x37x3 - 1z2z37z3 <= 0
x2x148x3 - 1z2z148z3 <= 0
x2x159x3 - 1z2z159z3 <= 0
x2x120x2 - 2z2z120z2 <= 0
x2x48x2 - 2z2z48z2 <= 0
x2x57x2 - 1z2z57z2 <= 0
x2x57x3 - 1z2z57z3 <= 0
x2x129x2 - 2z2z129z2 <= 0
x2x172x3 - 1z2z172z3 <= 0
x2x124x2 - 2z2z124z2 <= 0
x2x100x2 - 2z2z100z2 <= 0
x2x175x2 - 1z2z175z2 <= 0
x2x175x3 - 1z2z175z3 <= 0
x2x8x2 - 2z2z8z2 <= 0
x2x158x2 - 1z2z158z2 <= 0
x2x158x3 - 1z2z158z3 <= 0
x2x44x2 - 1z2z44z2 <= 0
x2x125x3 - 2z2z125z3 <= 0
x4x26x3 - 2z4z26z3 <= 0
x4x30x2 - 1z4z30z2 <= 0
x4x30x3 - 1z4z30z3 <= 0
x4x37x2 - 1z4z37z2 <= 0
x4x37x3 - 1z4z37z3 <= 0
x4x148x3 - 1z4z148z3 <= 0
x4x159x3 - 1z4z159z3 <= 0
x4x120x2 - 2z4z120z2 <= 0
x4x48x2 - 2z4z48z2 <= 0
x4x57x2 - 1z4z57z2 <= 0
x4x57x3 - 1z4z57z3 <= 0
x4x129x2 - 2z4z129z2 <= 0
x4x172x3 - 1z4z172z3 <= 0
x4x124x2 - 2z4z124z2 <= 0
x4x100x2 - 2z4z100z2 <= 0
x4x175x2 - 1z4z175z2 <= 0
x4x175x3 - 1z4z175z3 <= 0
x4x8x2 - 2z4z8z2 <= 0
x4x158x2 - 1z4z158z2 <= 0
x4x158x3 - 1z4z158z3 <= 0
x4x44x2 - 1z4z44z2 <= 0
x4x125x3 - 2z4z125z3 <= 0
x23x30x2 - 1z23z30z2 <= 0
x23x37x2 - 1z23z37z2 <= 0
x23x53x1 - 2z23z53z1 <= 0
x23x128x1 - 2z23z128z1 <= 0
x23x148x1 - 1z23z148z1 <= 0
x23x159x1 - 1z23z159z1 <= 0
x23x120x2 - 2z23z120z2 <= 0
x23x48x2 - 2z23z48z2 <= 0
x23x57x2 - 1z23z57z2 <= 0
x23x129x2 - 2z23z129z2 <= 0
x23x172x1 - 1z23z172z1 <= 0
x23x124x2 - 2z23z124z2 <= 0
x23x100x2 - 2z23z100z2 <= 0
x23x175x2 - 1z23z175z2 <= 0
x23x8x2 - 2z23z8z2 <= 0
x23x158x2 - 1z23z158z2 <= 0
x23x44x1 - 1z23z44z1 <= 0
x23x44x2 - 1z23z44z2 <= 0
x146x30x2 - 1z146z30z2 <= 0
x146x37x2 - 1z146z37z2 <= 0
x146x128x1 - 2z146z128z1 <= 0
x146x148x1 - 1z146z148z1 <= 0
x146x159x1 - 1z146z159z1 <= 0
x146x120x2 - 2z146z120z2 <= 0
x146x48x2 - 2z146z48z2 <= 0
x146x57x2 - 1z146z57z2 <= 0
x146x129x2 - 2z146z129z2 <= 0
x146x172x1 - 1z146z172z1 <= 0
x146x124x2 - 2z146z124z2 <= 0
x146x100x2 - 2z146z100z2 <= 0
x146x175x2 - 1z146z175z2 <= 0
x146x8x2 - 2z146z8z2 <= 0
x146x158x2 - 1z146z158z2 <= 0
x146x44x1 - 1z146z44z1 <= 0
x146x44x2 - 1z146z44z2 <= 0
x86x30x2 - 1z86z30z2 <= 0
x86x37x2 - 1z86z37z2 <= 0
x86x53x1 - 2z86z53z1 <= 0
x86x128x1 - 2z86z128z1 <= 0
x86x148x1 - 1z86z148z1 <= 0
x86x159x1 - 1z86z159z1 <= 0
x86x120x2 - 2z86z120z2 <= 0
x86x48x2 - 2z86z48z2 <= 0
x86x57x2 - 1z86z57z2 <= 0
x86x129x2 - 2z86z129z2 <= 0
x86x172x1 - 1z86z172z1 <= 0
x86x124x2 - 2z86z124z2 <= 0
x86x100x2 - 2z86z100z2 <= 0
x86x175x2 - 1z86z175z2 <= 0
x86x8x2 - 2z86z8z2 <= 0
x86x158x2 - 1z86z158z2 <= 0
x86x44x1 - 1z86z44z1 <= 0
x86x44x2 - 1z86z44z2 <= 0
x132x26x3 - 2z132z26z3 <= 0
x132x30x3 - 1z132z30z3 <= 0
x132x37x3 - 1z132z37z3 <= 0
x132x53x1 - 2z132z53z1 <= 0
x132x128x1 - 2z132z128z1 <= 0
x132x148x1 - 1z132z148z1 <= 0
x132x148x3 - 1z132z148z3 <= 0
x132x159x1 - 1z132z159z1 <= 0
x132x159x3 - 1z132z159z3 <= 0
x132x57x3 - 1z132z57z3 <= 0
x132x172x1 - 1z132z172z1 <= 0
x132x172x3 - 1z132z172z3 <= 0
x132x175x3 - 1z132z175z3 <= 0
x132x158x3 - 1z132z158z3 <= 0
x132x44x1 - 1z132z44z1 <= 0
x132x125x3 - 2z132z125z3 <= 0
x182x26x3 - 2z182z26z3 <= 0
x182x30x3 - 1z182z30z3 <= 0
x182x37x3 - 1z182z37z3 <= 0
x182x128x1 - 2z182z128z1 <= 0
x182x148x1 - 1z182z148z1 <= 0
x182x148x3 - 1z182z148z3 <= 0
x182x159x1 - 1z182z159z1 <= 0
x182x159x3 - 1z182z159z3 <= 0
x182x57x3 - 1z182z57z3 <= 0
x182x172x1 - 1z182z172z1 <= 0
x182x172x3 - 1z182z172z3 <= 0
x182x175x3 - 1z182z175z3 <= 0
x182x158x3 - 1z182z158z3 <= 0
x182x44x1 - 1z182z44z1 <= 0
x182x125x3 - 2z182z125z3 <= 0
x163x30x2 - 1z163z30z2 <= 0
x163x30x3 - 1z163z30z3 <= 0
x163x37x2 - 1z163z37z2 <= 0
x163x37x3 - 1z163z37z3 <= 0
x163x148x3 - 1z163z148z3 <= 0
x163x159x3 - 1z163z159z3 <= 0
x163x120x2 - 2z163z120z2 <= 0
x163x48x2 - 2z163z48z2 <= 0
x163x57x2 - 1z163z57z2 <= 0
x163x57x3 - 1z163z57z3 <= 0
x163x129x2 - 2z163z129z2 <= 0
x163x172x3 - 1z163z172z3 <= 0
x163x124x2 - 2z163z124z2 <= 0
x163x100x2 - 2z163z100z2 <= 0
x163x175x2 - 1z163z175z2 <= 0
x163x175x3 - 1z163z175z3 <= 0
x163x8x2 - 2z163z8z2 <= 0
x163x158x2 - 1z163z158z2 <= 0
x163x158x3 - 1z163z158z3 <= 0
x163x44x2 - 1z163z44z2 <= 0
x163x125x3 - 2z163z125z3 <= 0
x26x57x3 - 1z26z57z3 <= 0
x26x172x3 - 1z26z172z3 <= 0
x26x175x3 - 1z26z175z3 <= 0
x26x158x3 - 1z26z158z3 <= 0
x26x125x3 - 2z26z125z3 <= 0
x26x0x3 <= 2
x30x48x2 - 2z30z48z2 <= 0
x30x57x2 - 1z30z57z2 <= 0
x30x57x3 - 1z30z57z3 <= 0
x30x129x2 - 2z30z129z2 <= 0
x30x172x3 - 1z30z172z3 <= 0
x30x124x2 - 2z30z124z2 <= 0
x30x100x2 - 2z30z100z2 <= 0
x30x175x2 - 1z30z175z2 <= 0
x30x175x3 - 1z30z175z3 <= 0
x30x8x2 - 2z30z8z2 <= 0
x30x158x2 - 1z30z158z2 <= 0
x30x158x3 - 1z30z158z3 <= 0
x30x44x2 - 1z30z44z2 <= 0
x30x125x3 - 2z30z125z3 <= 0
x30x0x2 <= 1
x30x0x3 <= 1
x37x48x2 - 2z37z48z2 <= 0
x37x57x2 - 1z37z57z2 <= 0
x37x57x3 - 1z37z57z3 <= 0
x37x129x2 - 2z37z129z2 <= 0
x37x172x3 - 1z37z172z3 <= 0
x37x124x2 - 2z37z124z2 <= 0
x37x100x2 - 2z37z100z2 <= 0
x37x175x2 - 1z37z175z2 <= 0
x37x175x3 - 1z37z175z3 <= 0
x37x8x2 - 2z37z8z2 <= 0
x37x158x2 - 1z37z158z2 <= 0
x37x158x3 - 1z37z158z3 <= 0
x37x44x2 - 1z37z44z2 <= 0
x37x125x3 - 2z37z125z3 <= 0
x37x0x2 <= 1
x37x0x3 <= 1
x53x172x1 - 1z53z172z1 <= 0
x53x44x1 - 1z53z44z1 <= 0
x53x0x1 <= 2
x128x172x1 - 1z128z172z1 <= 0
x128x44x1 - 1z128z44z1 <= 0
x128x0x1 <= 2
x148x57x3 - 1z148z57z3 <= 0
x148x172x1 - 1z148z172z1 <= 0
x148x172x3 - 1z148z172z3 <= 0
x148x175x3 - 1z148z175z3 <= 0
x148x158x3 - 1z148z158z3 <= 0
x148x44x1 - 1z148z44z1 <= 0
x148x125x3 - 2z148z125z3 <= 0
x148x0x1 <= 1
x148x0x3 <= 1
x159x57x3 - 1z159z57z3 <= 0
x159x172x1 - 1z159z172z1 <= 0
x159x172x3 - 1z159z172z3 <= 0
x159x175x3 - 1z159z175z3 <= 0
x159x158x3 - 1z159z158z3 <= 0
x159x44x1 - 1z159z44z1 <= 0
x159x125x3 - 2z159z125z3 <= 0
x159x0x1 <= 1
x159x0x3 <= 1
x120x48x2 - 2z120z48z2 <= 0
x120x57x2 - 1z120z57z2 <= 0
x120x129x2 - 2z120z129z2 <= 0
x120x124x2 - 2z120z124z2 <= 0
x120x100x2 - 2z120z100z2 <= 0
x120x175x2 - 1z120z175z2 <= 0
x120x8x2 - 2z120z8z2 <= 0
x120x158x2 - 1z120z158z2 <= 0
x120x44x2 - 1z120z44z2 <= 0
x120x0x2 <= 2
x48x175x2 - 1z48z175z2 <= 0
x48x8x2 - 2z48z8z2 <= 0
x48x158x2 - 1z48z158z2 <= 0
x48x44x2 - 1z48z44z2 <= 0
x48x0x2 <= 2
x57x172x3 - 1z57z172z3 <= 0
x57x124x2 - 2z57z124z2 <= 0
x57x100x2 - 2z57z100z2 <= 0
x57x175x2 - 1z57z175z2 <= 0
x57x175x3 - 1z57z175z3 <= 0
x57x8x2 - 2z57z8z2 <= 0
x57x158x2 - 1z57z158z2 <= 0
x57x158x3 - 1z57z158z3 <= 0
x57x44x2 - 1z57z44z2 <= 0
x57x125x3 - 2z57z125z3 <= 0
x57x0x2 <= 1
x57x0x3 <= 1
x129x124x2 - 2z129z124z2 <= 0
x129x100x2 - 2z129z100z2 <= 0
x129x175x2 - 1z129z175z2 <= 0
x129x8x2 - 2z129z8z2 <= 0
x129x158x2 - 1z129z158z2 <= 0
x129x44x2 - 1z129z44z2 <= 0
x129x0x2 <= 2
x172x175x3 - 1z172z175z3 <= 0
x172x158x3 - 1z172z158z3 <= 0
x172x44x1 - 1z172z44z1 <= 0
x172x125x3 - 2z172z125z3 <= 0
x172x0x1 <= 1
x172x0x3 <= 1
x124x100x2 - 2z124z100z2 <= 0
x124x175x2 - 1z124z175z2 <= 0
x124x8x2 - 2z124z8z2 <= 0
x124x158x2 - 1z124z158z2 <= 0
x124x44x2 - 1z124z44z2 <= 0
x124x0x2 <= 2
x100x175x2 - 1z100z175z2 <= 0
x100x8x2 - 2z100z8z2 <= 0
x100x158x2 - 1z100z158z2 <= 0
x100x44x2 - 1z100z44z2 <= 0
x100x0x2 <= 2
x175x44x2 - 1z175z44z2 <= 0
x175x125x3 - 2z175z125z3 <= 0
x175x0x2 <= 1
x175x0x3 <= 1
x8x44x2 - 1z8z44z2 <= 0
x8x0x2 <= 2
x158x125x3 - 2z158z125z3 <= 0
x158x0x2 <= 1
x158x0x3 <= 1
x44x0x1 <= 1
x44x0x2 <= 1
x125x0x3 <= 2

Bounds
s122 = 5.282617
s2 = 4.829600
s4 = 4.821390
s23 = 4.868620
s146 = 4.859760
s86 = 4.923920
s132 = 5.052440
s182 = 5.109870
s163 = 5.140240
6.000000 <= s26 <= 6.540000
6.000000 <= s30 <= 6.940000
6.000000 <= s37 <= 6.830000
6.000000 <= s53 <= 6.540000
6.000000 <= s128 <= 6.790000
6.000000 <= s148 <= 6.910000
6.000000 <= s159 <= 6.660000
6.040000 <= s120 <= 7.040000
6.270000 <= s48 <= 7.270000
6.330000 <= s57 <= 7.330000
6.330000 <= s129 <= 7.330000
6.380000 <= s172 <= 7.380000
6.390000 <= s124 <= 7.390000
6.400000 <= s100 <= 7.400000
6.450000 <= s175 <= 7.450000
6.470000 <= s8 <= 7.470000
6.480000 <= s158 <= 7.480000
6.530000 <= s44 <= 7.530000
6.790000 <= s125 <= 7.790000

General
x122x30x3 x122x37x3 x122x128x1 x122x148x1 x122x148x3 x122x57x3 x122x172x1 x122x172x3 x122x175x3 x122x158x3 x122x44x1 x122x125x3 
x2x26x3 x2x30x2 x2x30x3 x2x37x2 x2x37x3 x2x148x3 x2x159x3 x2x120x2 x2x48x2 x2x57x2 x2x57x3 x2x129x2 x2x172x3 x2x124x2 x2x100x2 x2x175x2 x2x175x3 x2x8x2 x2x158x2 x2x158x3 x2x44x2 x2x125x3 
x4x26x3 x4x30x2 x4x30x3 x4x37x2 x4x37x3 x4x148x3 x4x159x3 x4x120x2 x4x48x2 x4x57x2 x4x57x3 x4x129x2 x4x172x3 x4x124x2 x4x100x2 x4x175x2 x4x175x3 x4x8x2 x4x158x2 x4x158x3 x4x44x2 x4x125x3 
x23x30x2 x23x37x2 x23x53x1 x23x128x1 x23x148x1 x23x159x1 x23x120x2 x23x48x2 x23x57x2 x23x129x2 x23x172x1 x23x124x2 x23x100x2 x23x175x2 x23x8x2 x23x158x2 x23x44x1 x23x44x2 
x146x30x2 x146x37x2 x146x128x1 x146x148x1 x146x159x1 x146x120x2 x146x48x2 x146x57x2 x146x129x2 x146x172x1 x146x124x2 x146x100x2 x146x175x2 x146x8x2 x146x158x2 x146x44x1 x146x44x2 
x86x30x2 x86x37x2 x86x53x1 x86x128x1 x86x148x1 x86x159x1 x86x120x2 x86x48x2 x86x57x2 x86x129x2 x86x172x1 x86x124x2 x86x100x2 x86x175x2 x86x8x2 x86x158x2 x86x44x1 x86x44x2 
x132x26x3 x132x30x3 x132x37x3 x132x53x1 x132x128x1 x132x148x1 x132x148x3 x132x159x1 x132x159x3 x132x57x3 x132x172x1 x132x172x3 x132x175x3 x132x158x3 x132x44x1 x132x125x3 
x182x26x3 x182x30x3 x182x37x3 x182x128x1 x182x148x1 x182x148x3 x182x159x1 x182x159x3 x182x57x3 x182x172x1 x182x172x3 x182x175x3 x182x158x3 x182x44x1 x182x125x3 
x163x30x2 x163x30x3 x163x37x2 x163x37x3 x163x148x3 x163x159x3 x163x120x2 x163x48x2 x163x57x2 x163x57x3 x163x129x2 x163x172x3 x163x124x2 x163x100x2 x163x175x2 x163x175x3 x163x8x2 x163x158x2 x163x158x3 x163x44x2 x163x125x3 
x26x57x3 x26x172x3 x26x175x3 x26x158x3 x26x125x3 x26x0x3 
x30x48x2 x30x57x2 x30x57x3 x30x129x2 x30x172x3 x30x124x2 x30x100x2 x30x175x2 x30x175x3 x30x8x2 x30x158x2 x30x158x3 x30x44x2 x30x125x3 x30x0x2 x30x0x3 
x37x48x2 x37x57x2 x37x57x3 x37x129x2 x37x172x3 x37x124x2 x37x100x2 x37x175x2 x37x175x3 x37x8x2 x37x158x2 x37x158x3 x37x44x2 x37x125x3 x37x0x2 x37x0x3 
x53x172x1 x53x44x1 x53x0x1 
x128x172x1 x128x44x1 x128x0x1 
x148x57x3 x148x172x1 x148x172x3 x148x175x3 x148x158x3 x148x44x1 x148x125x3 x148x0x1 x148x0x3 
x159x57x3 x159x172x1 x159x172x3 x159x175x3 x159x158x3 x159x44x1 x159x125x3 x159x0x1 x159x0x3 
x120x48x2 x120x57x2 x120x129x2 x120x124x2 x120x100x2 x120x175x2 x120x8x2 x120x158x2 x120x44x2 x120x0x2 
x48x175x2 x48x8x2 x48x158x2 x48x44x2 x48x0x2 
x57x172x3 x57x124x2 x57x100x2 x57x175x2 x57x175x3 x57x8x2 x57x158x2 x57x158x3 x57x44x2 x57x125x3 x57x0x2 x57x0x3 
x129x124x2 x129x100x2 x129x175x2 x129x8x2 x129x158x2 x129x44x2 x129x0x2 
x172x175x3 x172x158x3 x172x44x1 x172x125x3 x172x0x1 x172x0x3 
x124x100x2 x124x175x2 x124x8x2 x124x158x2 x124x44x2 x124x0x2 
x100x175x2 x100x8x2 x100x158x2 x100x44x2 x100x0x2 
x175x44x2 x175x125x3 x175x0x2 x175x0x3 
x8x44x2 x8x0x2 
x158x125x3 x158x0x2 x158x0x3 
x44x0x1 x44x0x2 
x125x0x3 

Binaries
y26 y30 y37 y53 y128 y148 y159 y120 y48 y57 y129 y172 y124 y100 y175 y8 y158 y44 y125 
z122z30z3 z122z37z3 z122z128z1 z122z148z1 z122z148z3 z122z57z3 z122z172z1 z122z172z3 z122z175z3 z122z158z3 z122z44z1 z122z125z3 
z2z26z3 z2z30z2 z2z30z3 z2z37z2 z2z37z3 z2z148z3 z2z159z3 z2z120z2 z2z48z2 z2z57z2 z2z57z3 z2z129z2 z2z172z3 z2z124z2 z2z100z2 z2z175z2 z2z175z3 z2z8z2 z2z158z2 z2z158z3 z2z44z2 z2z125z3 
z4z26z3 z4z30z2 z4z30z3 z4z37z2 z4z37z3 z4z148z3 z4z159z3 z4z120z2 z4z48z2 z4z57z2 z4z57z3 z4z129z2 z4z172z3 z4z124z2 z4z100z2 z4z175z2 z4z175z3 z4z8z2 z4z158z2 z4z158z3 z4z44z2 z4z125z3 
z23z30z2 z23z37z2 z23z53z1 z23z128z1 z23z148z1 z23z159z1 z23z120z2 z23z48z2 z23z57z2 z23z129z2 z23z172z1 z23z124z2 z23z100z2 z23z175z2 z23z8z2 z23z158z2 z23z44z1 z23z44z2 
z146z30z2 z146z37z2 z146z128z1 z146z148z1 z146z159z1 z146z120z2 z146z48z2 z146z57z2 z146z129z2 z146z172z1 z146z124z2 z146z100z2 z146z175z2 z146z8z2 z146z158z2 z146z44z1 z146z44z2 
z86z30z2 z86z37z2 z86z53z1 z86z128z1 z86z148z1 z86z159z1 z86z120z2 z86z48z2 z86z57z2 z86z129z2 z86z172z1 z86z124z2 z86z100z2 z86z175z2 z86z8z2 z86z158z2 z86z44z1 z86z44z2 
z132z26z3 z132z30z3 z132z37z3 z132z53z1 z132z128z1 z132z148z1 z132z148z3 z132z159z1 z132z159z3 z132z57z3 z132z172z1 z132z172z3 z132z175z3 z132z158z3 z132z44z1 z132z125z3 
z182z26z3 z182z30z3 z182z37z3 z182z128z1 z182z148z1 z182z148z3 z182z159z1 z182z159z3 z182z57z3 z182z172z1 z182z172z3 z182z175z3 z182z158z3 z182z44z1 z182z125z3 
z163z30z2 z163z30z3 z163z37z2 z163z37z3 z163z148z3 z163z159z3 z163z120z2 z163z48z2 z163z57z2 z163z57z3 z163z129z2 z163z172z3 z163z124z2 z163z100z2 z163z175z2 z163z175z3 z163z8z2 z163z158z2 z163z158z3 z163z44z2 z163z125z3 
z26z57z3 z26z172z3 z26z175z3 z26z158z3 z26z125z3 
z30z48z2 z30z57z2 z30z57z3 z30z129z2 z30z172z3 z30z124z2 z30z100z2 z30z175z2 z30z175z3 z30z8z2 z30z158z2 z30z158z3 z30z44z2 z30z125z3 
z37z48z2 z37z57z2 z37z57z3 z37z129z2 z37z172z3 z37z124z2 z37z100z2 z37z175z2 z37z175z3 z37z8z2 z37z158z2 z37z158z3 z37z44z2 z37z125z3 
z53z172z1 z53z44z1 
z128z172z1 z128z44z1 
z148z57z3 z148z172z1 z148z172z3 z148z175z3 z148z158z3 z148z44z1 z148z125z3 
z159z57z3 z159z172z1 z159z172z3 z159z175z3 z159z158z3 z159z44z1 z159z125z3 
z120z48z2 z120z57z2 z120z129z2 z120z124z2 z120z100z2 z120z175z2 z120z8z2 z120z158z2 z120z44z2 
z48z175z2 z48z8z2 z48z158z2 z48z44z2 
z57z172z3 z57z124z2 z57z100z2 z57z175z2 z57z175z3 z57z8z2 z57z158z2 z57z158z3 z57z44z2 z57z125z3 
z129z124z2 z129z100z2 z129z175z2 z129z8z2 z129z158z2 z129z44z2 
z172z175z3 z172z158z3 z172z44z1 z172z125z3 
z124z100z2 z124z175z2 z124z8z2 z124z158z2 z124z44z2 
z100z175z2 z100z8z2 z100z158z2 z100z44z2 
z175z44z2 z175z125z3 
z8z44z2 
z158z125z3 



End